$comment
Excited state CIS calculations on CH3CH3
$end

$molecule
0 3
C	0.0000	0.0000	2.5
C	0.0000	0.0000	-2.5
H	-1.0192	0.0000	2.8893
H	0.5096	0.8826	2.8893
H	0.5096	-0.8826	2.8893
H	1.0192	0.0000	-2.8893
H	-0.5096	-0.8826	-2.8893
H	-0.5096	0.8826	-2.8893
$end


$rem
method hf
basis aug-cc-pvdz
jobtype sp
unrestricted false


cis_n_roots 15
max_cis_cycles 200
spin_flip_xcis true


gen_scfman true
scf_algorithm gdm
max_scf_cycles 500
scf_convergence 10
internal_stability_iter 15
internal_stability_davidson_iter 200

thresh 14
symmetry false
sym_ignore true
$end



@@@@@@

$comment
Excited state CIS calculations on CH3CH3
$end

$molecule
0 3
C	0.0000	0.0000	2.495
C	0.0000	0.0000	-2.495
H	-1.0192	0.0000	2.8843
H	0.5096	0.8826	2.8843
H	0.5096	-0.8826	2.8843
H	1.0192	0.0000	-2.8843
H	-0.5096	-0.8826	-2.8843
H	-0.5096	0.8826	-2.8843
$end


$rem
method hf
basis aug-cc-pvdz
jobtype sp
unrestricted false
scf_guess read

cis_n_roots 15
max_cis_cycles 200
spin_flip_xcis true


gen_scfman true
scf_algorithm gdm
max_scf_cycles 500
scf_convergence 10
internal_stability_iter 15
internal_stability_davidson_iter 200

thresh 14
symmetry false
sym_ignore true
$end



@@@@@@

$comment
Excited state CIS calculations on CH3CH3
$end

$molecule
0 3
C	0.0000	0.0000	2.49
C	0.0000	0.0000	-2.49
H	-1.0192	0.0000	2.8793
H	0.5096	0.8826	2.8793
H	0.5096	-0.8826	2.8793
H	1.0192	0.0000	-2.8793
H	-0.5096	-0.8826	-2.8793
H	-0.5096	0.8826	-2.8793
$end


$rem
method hf
basis aug-cc-pvdz
jobtype sp
unrestricted false
scf_guess read

cis_n_roots 15
max_cis_cycles 200
spin_flip_xcis true


gen_scfman true
scf_algorithm gdm
max_scf_cycles 500
scf_convergence 10
internal_stability_iter 15
internal_stability_davidson_iter 200

thresh 14
symmetry false
sym_ignore true
$end



@@@@@@

$comment
Excited state CIS calculations on CH3CH3
$end

$molecule
0 3
C	0.0000	0.0000	2.485
C	0.0000	0.0000	-2.485
H	-1.0192	0.0000	2.8743
H	0.5096	0.8826	2.8743
H	0.5096	-0.8826	2.8743
H	1.0192	0.0000	-2.8743
H	-0.5096	-0.8826	-2.8743
H	-0.5096	0.8826	-2.8743
$end


$rem
method hf
basis aug-cc-pvdz
jobtype sp
unrestricted false
scf_guess read

cis_n_roots 15
max_cis_cycles 200
spin_flip_xcis true


gen_scfman true
scf_algorithm gdm
max_scf_cycles 500
scf_convergence 10
internal_stability_iter 15
internal_stability_davidson_iter 200

thresh 14
symmetry false
sym_ignore true
$end



@@@@@@

$comment
Excited state CIS calculations on CH3CH3
$end

$molecule
0 3
C	0.0000	0.0000	2.48
C	0.0000	0.0000	-2.48
H	-1.0192	0.0000	2.8693
H	0.5096	0.8826	2.8693
H	0.5096	-0.8826	2.8693
H	1.0192	0.0000	-2.8693
H	-0.5096	-0.8826	-2.8693
H	-0.5096	0.8826	-2.8693
$end


$rem
method hf
basis aug-cc-pvdz
jobtype sp
unrestricted false
scf_guess read

cis_n_roots 15
max_cis_cycles 200
spin_flip_xcis true


gen_scfman true
scf_algorithm gdm
max_scf_cycles 500
scf_convergence 10
internal_stability_iter 15
internal_stability_davidson_iter 200

thresh 14
symmetry false
sym_ignore true
$end



@@@@@@

$comment
Excited state CIS calculations on CH3CH3
$end

$molecule
0 3
C	0.0000	0.0000	2.475
C	0.0000	0.0000	-2.475
H	-1.0192	0.0000	2.8643
H	0.5096	0.8826	2.8643
H	0.5096	-0.8826	2.8643
H	1.0192	0.0000	-2.8643
H	-0.5096	-0.8826	-2.8643
H	-0.5096	0.8826	-2.8643
$end


$rem
method hf
basis aug-cc-pvdz
jobtype sp
unrestricted false
scf_guess read

cis_n_roots 15
max_cis_cycles 200
spin_flip_xcis true


gen_scfman true
scf_algorithm gdm
max_scf_cycles 500
scf_convergence 10
internal_stability_iter 15
internal_stability_davidson_iter 200

thresh 14
symmetry false
sym_ignore true
$end



@@@@@@

$comment
Excited state CIS calculations on CH3CH3
$end

$molecule
0 3
C	0.0000	0.0000	2.47
C	0.0000	0.0000	-2.47
H	-1.0192	0.0000	2.8593
H	0.5096	0.8826	2.8593
H	0.5096	-0.8826	2.8593
H	1.0192	0.0000	-2.8593
H	-0.5096	-0.8826	-2.8593
H	-0.5096	0.8826	-2.8593
$end


$rem
method hf
basis aug-cc-pvdz
jobtype sp
unrestricted false
scf_guess read

cis_n_roots 15
max_cis_cycles 200
spin_flip_xcis true


gen_scfman true
scf_algorithm gdm
max_scf_cycles 500
scf_convergence 10
internal_stability_iter 15
internal_stability_davidson_iter 200

thresh 14
symmetry false
sym_ignore true
$end



@@@@@@

$comment
Excited state CIS calculations on CH3CH3
$end

$molecule
0 3
C	0.0000	0.0000	2.465
C	0.0000	0.0000	-2.465
H	-1.0192	0.0000	2.8543
H	0.5096	0.8826	2.8543
H	0.5096	-0.8826	2.8543
H	1.0192	0.0000	-2.8543
H	-0.5096	-0.8826	-2.8543
H	-0.5096	0.8826	-2.8543
$end


$rem
method hf
basis aug-cc-pvdz
jobtype sp
unrestricted false
scf_guess read

cis_n_roots 15
max_cis_cycles 200
spin_flip_xcis true


gen_scfman true
scf_algorithm gdm
max_scf_cycles 500
scf_convergence 10
internal_stability_iter 15
internal_stability_davidson_iter 200

thresh 14
symmetry false
sym_ignore true
$end



@@@@@@

$comment
Excited state CIS calculations on CH3CH3
$end

$molecule
0 3
C	0.0000	0.0000	2.46
C	0.0000	0.0000	-2.46
H	-1.0192	0.0000	2.8493
H	0.5096	0.8826	2.8493
H	0.5096	-0.8826	2.8493
H	1.0192	0.0000	-2.8493
H	-0.5096	-0.8826	-2.8493
H	-0.5096	0.8826	-2.8493
$end


$rem
method hf
basis aug-cc-pvdz
jobtype sp
unrestricted false
scf_guess read

cis_n_roots 15
max_cis_cycles 200
spin_flip_xcis true


gen_scfman true
scf_algorithm gdm
max_scf_cycles 500
scf_convergence 10
internal_stability_iter 15
internal_stability_davidson_iter 200

thresh 14
symmetry false
sym_ignore true
$end



@@@@@@

$comment
Excited state CIS calculations on CH3CH3
$end

$molecule
0 3
C	0.0000	0.0000	2.455
C	0.0000	0.0000	-2.455
H	-1.0192	0.0000	2.8443
H	0.5096	0.8826	2.8443
H	0.5096	-0.8826	2.8443
H	1.0192	0.0000	-2.8443
H	-0.5096	-0.8826	-2.8443
H	-0.5096	0.8826	-2.8443
$end


$rem
method hf
basis aug-cc-pvdz
jobtype sp
unrestricted false
scf_guess read

cis_n_roots 15
max_cis_cycles 200
spin_flip_xcis true


gen_scfman true
scf_algorithm gdm
max_scf_cycles 500
scf_convergence 10
internal_stability_iter 15
internal_stability_davidson_iter 200

thresh 14
symmetry false
sym_ignore true
$end



@@@@@@

$comment
Excited state CIS calculations on CH3CH3
$end

$molecule
0 3
C	0.0000	0.0000	2.45
C	0.0000	0.0000	-2.45
H	-1.0192	0.0000	2.8393
H	0.5096	0.8826	2.8393
H	0.5096	-0.8826	2.8393
H	1.0192	0.0000	-2.8393
H	-0.5096	-0.8826	-2.8393
H	-0.5096	0.8826	-2.8393
$end


$rem
method hf
basis aug-cc-pvdz
jobtype sp
unrestricted false
scf_guess read

cis_n_roots 15
max_cis_cycles 200
spin_flip_xcis true


gen_scfman true
scf_algorithm gdm
max_scf_cycles 500
scf_convergence 10
internal_stability_iter 15
internal_stability_davidson_iter 200

thresh 14
symmetry false
sym_ignore true
$end



@@@@@@

$comment
Excited state CIS calculations on CH3CH3
$end

$molecule
0 3
C	0.0000	0.0000	2.445
C	0.0000	0.0000	-2.445
H	-1.0192	0.0000	2.8343
H	0.5096	0.8826	2.8343
H	0.5096	-0.8826	2.8343
H	1.0192	0.0000	-2.8343
H	-0.5096	-0.8826	-2.8343
H	-0.5096	0.8826	-2.8343
$end


$rem
method hf
basis aug-cc-pvdz
jobtype sp
unrestricted false
scf_guess read

cis_n_roots 15
max_cis_cycles 200
spin_flip_xcis true


gen_scfman true
scf_algorithm gdm
max_scf_cycles 500
scf_convergence 10
internal_stability_iter 15
internal_stability_davidson_iter 200

thresh 14
symmetry false
sym_ignore true
$end



@@@@@@

$comment
Excited state CIS calculations on CH3CH3
$end

$molecule
0 3
C	0.0000	0.0000	2.44
C	0.0000	0.0000	-2.44
H	-1.0192	0.0000	2.8293
H	0.5096	0.8826	2.8293
H	0.5096	-0.8826	2.8293
H	1.0192	0.0000	-2.8293
H	-0.5096	-0.8826	-2.8293
H	-0.5096	0.8826	-2.8293
$end


$rem
method hf
basis aug-cc-pvdz
jobtype sp
unrestricted false
scf_guess read

cis_n_roots 15
max_cis_cycles 200
spin_flip_xcis true


gen_scfman true
scf_algorithm gdm
max_scf_cycles 500
scf_convergence 10
internal_stability_iter 15
internal_stability_davidson_iter 200

thresh 14
symmetry false
sym_ignore true
$end



@@@@@@

$comment
Excited state CIS calculations on CH3CH3
$end

$molecule
0 3
C	0.0000	0.0000	2.435
C	0.0000	0.0000	-2.435
H	-1.0192	0.0000	2.8243
H	0.5096	0.8826	2.8243
H	0.5096	-0.8826	2.8243
H	1.0192	0.0000	-2.8243
H	-0.5096	-0.8826	-2.8243
H	-0.5096	0.8826	-2.8243
$end


$rem
method hf
basis aug-cc-pvdz
jobtype sp
unrestricted false
scf_guess read

cis_n_roots 15
max_cis_cycles 200
spin_flip_xcis true


gen_scfman true
scf_algorithm gdm
max_scf_cycles 500
scf_convergence 10
internal_stability_iter 15
internal_stability_davidson_iter 200

thresh 14
symmetry false
sym_ignore true
$end



@@@@@@

$comment
Excited state CIS calculations on CH3CH3
$end

$molecule
0 3
C	0.0000	0.0000	2.43
C	0.0000	0.0000	-2.43
H	-1.0192	0.0000	2.8193
H	0.5096	0.8826	2.8193
H	0.5096	-0.8826	2.8193
H	1.0192	0.0000	-2.8193
H	-0.5096	-0.8826	-2.8193
H	-0.5096	0.8826	-2.8193
$end


$rem
method hf
basis aug-cc-pvdz
jobtype sp
unrestricted false
scf_guess read

cis_n_roots 15
max_cis_cycles 200
spin_flip_xcis true


gen_scfman true
scf_algorithm gdm
max_scf_cycles 500
scf_convergence 10
internal_stability_iter 15
internal_stability_davidson_iter 200

thresh 14
symmetry false
sym_ignore true
$end



@@@@@@

$comment
Excited state CIS calculations on CH3CH3
$end

$molecule
0 3
C	0.0000	0.0000	2.425
C	0.0000	0.0000	-2.425
H	-1.0192	0.0000	2.8143
H	0.5096	0.8826	2.8143
H	0.5096	-0.8826	2.8143
H	1.0192	0.0000	-2.8143
H	-0.5096	-0.8826	-2.8143
H	-0.5096	0.8826	-2.8143
$end


$rem
method hf
basis aug-cc-pvdz
jobtype sp
unrestricted false
scf_guess read

cis_n_roots 15
max_cis_cycles 200
spin_flip_xcis true


gen_scfman true
scf_algorithm gdm
max_scf_cycles 500
scf_convergence 10
internal_stability_iter 15
internal_stability_davidson_iter 200

thresh 14
symmetry false
sym_ignore true
$end



@@@@@@

$comment
Excited state CIS calculations on CH3CH3
$end

$molecule
0 3
C	0.0000	0.0000	2.42
C	0.0000	0.0000	-2.42
H	-1.0192	0.0000	2.8093
H	0.5096	0.8826	2.8093
H	0.5096	-0.8826	2.8093
H	1.0192	0.0000	-2.8093
H	-0.5096	-0.8826	-2.8093
H	-0.5096	0.8826	-2.8093
$end


$rem
method hf
basis aug-cc-pvdz
jobtype sp
unrestricted false
scf_guess read

cis_n_roots 15
max_cis_cycles 200
spin_flip_xcis true


gen_scfman true
scf_algorithm gdm
max_scf_cycles 500
scf_convergence 10
internal_stability_iter 15
internal_stability_davidson_iter 200

thresh 14
symmetry false
sym_ignore true
$end



@@@@@@

$comment
Excited state CIS calculations on CH3CH3
$end

$molecule
0 3
C	0.0000	0.0000	2.415
C	0.0000	0.0000	-2.415
H	-1.0192	0.0000	2.8043
H	0.5096	0.8826	2.8043
H	0.5096	-0.8826	2.8043
H	1.0192	0.0000	-2.8043
H	-0.5096	-0.8826	-2.8043
H	-0.5096	0.8826	-2.8043
$end


$rem
method hf
basis aug-cc-pvdz
jobtype sp
unrestricted false
scf_guess read

cis_n_roots 15
max_cis_cycles 200
spin_flip_xcis true


gen_scfman true
scf_algorithm gdm
max_scf_cycles 500
scf_convergence 10
internal_stability_iter 15
internal_stability_davidson_iter 200

thresh 14
symmetry false
sym_ignore true
$end



@@@@@@

$comment
Excited state CIS calculations on CH3CH3
$end

$molecule
0 3
C	0.0000	0.0000	2.41
C	0.0000	0.0000	-2.41
H	-1.0192	0.0000	2.7993
H	0.5096	0.8826	2.7993
H	0.5096	-0.8826	2.7993
H	1.0192	0.0000	-2.7993
H	-0.5096	-0.8826	-2.7993
H	-0.5096	0.8826	-2.7993
$end


$rem
method hf
basis aug-cc-pvdz
jobtype sp
unrestricted false
scf_guess read

cis_n_roots 15
max_cis_cycles 200
spin_flip_xcis true


gen_scfman true
scf_algorithm gdm
max_scf_cycles 500
scf_convergence 10
internal_stability_iter 15
internal_stability_davidson_iter 200

thresh 14
symmetry false
sym_ignore true
$end



@@@@@@

$comment
Excited state CIS calculations on CH3CH3
$end

$molecule
0 3
C	0.0000	0.0000	2.405
C	0.0000	0.0000	-2.405
H	-1.0192	0.0000	2.7943
H	0.5096	0.8826	2.7943
H	0.5096	-0.8826	2.7943
H	1.0192	0.0000	-2.7943
H	-0.5096	-0.8826	-2.7943
H	-0.5096	0.8826	-2.7943
$end


$rem
method hf
basis aug-cc-pvdz
jobtype sp
unrestricted false
scf_guess read

cis_n_roots 15
max_cis_cycles 200
spin_flip_xcis true


gen_scfman true
scf_algorithm gdm
max_scf_cycles 500
scf_convergence 10
internal_stability_iter 15
internal_stability_davidson_iter 200

thresh 14
symmetry false
sym_ignore true
$end



@@@@@@

$comment
Excited state CIS calculations on CH3CH3
$end

$molecule
0 3
C	0.0000	0.0000	2.4
C	0.0000	0.0000	-2.4
H	-1.0192	0.0000	2.7893
H	0.5096	0.8826	2.7893
H	0.5096	-0.8826	2.7893
H	1.0192	0.0000	-2.7893
H	-0.5096	-0.8826	-2.7893
H	-0.5096	0.8826	-2.7893
$end


$rem
method hf
basis aug-cc-pvdz
jobtype sp
unrestricted false
scf_guess read

cis_n_roots 15
max_cis_cycles 200
spin_flip_xcis true


gen_scfman true
scf_algorithm gdm
max_scf_cycles 500
scf_convergence 10
internal_stability_iter 15
internal_stability_davidson_iter 200

thresh 14
symmetry false
sym_ignore true
$end



@@@@@@

$comment
Excited state CIS calculations on CH3CH3
$end

$molecule
0 3
C	0.0000	0.0000	2.395
C	0.0000	0.0000	-2.395
H	-1.0192	0.0000	2.7843
H	0.5096	0.8826	2.7843
H	0.5096	-0.8826	2.7843
H	1.0192	0.0000	-2.7843
H	-0.5096	-0.8826	-2.7843
H	-0.5096	0.8826	-2.7843
$end


$rem
method hf
basis aug-cc-pvdz
jobtype sp
unrestricted false
scf_guess read

cis_n_roots 15
max_cis_cycles 200
spin_flip_xcis true


gen_scfman true
scf_algorithm gdm
max_scf_cycles 500
scf_convergence 10
internal_stability_iter 15
internal_stability_davidson_iter 200

thresh 14
symmetry false
sym_ignore true
$end



@@@@@@

$comment
Excited state CIS calculations on CH3CH3
$end

$molecule
0 3
C	0.0000	0.0000	2.39
C	0.0000	0.0000	-2.39
H	-1.0192	0.0000	2.7793
H	0.5096	0.8826	2.7793
H	0.5096	-0.8826	2.7793
H	1.0192	0.0000	-2.7793
H	-0.5096	-0.8826	-2.7793
H	-0.5096	0.8826	-2.7793
$end


$rem
method hf
basis aug-cc-pvdz
jobtype sp
unrestricted false
scf_guess read

cis_n_roots 15
max_cis_cycles 200
spin_flip_xcis true


gen_scfman true
scf_algorithm gdm
max_scf_cycles 500
scf_convergence 10
internal_stability_iter 15
internal_stability_davidson_iter 200

thresh 14
symmetry false
sym_ignore true
$end



@@@@@@

$comment
Excited state CIS calculations on CH3CH3
$end

$molecule
0 3
C	0.0000	0.0000	2.385
C	0.0000	0.0000	-2.385
H	-1.0192	0.0000	2.7743
H	0.5096	0.8826	2.7743
H	0.5096	-0.8826	2.7743
H	1.0192	0.0000	-2.7743
H	-0.5096	-0.8826	-2.7743
H	-0.5096	0.8826	-2.7743
$end


$rem
method hf
basis aug-cc-pvdz
jobtype sp
unrestricted false
scf_guess read

cis_n_roots 15
max_cis_cycles 200
spin_flip_xcis true


gen_scfman true
scf_algorithm gdm
max_scf_cycles 500
scf_convergence 10
internal_stability_iter 15
internal_stability_davidson_iter 200

thresh 14
symmetry false
sym_ignore true
$end



@@@@@@

$comment
Excited state CIS calculations on CH3CH3
$end

$molecule
0 3
C	0.0000	0.0000	2.38
C	0.0000	0.0000	-2.38
H	-1.0192	0.0000	2.7693
H	0.5096	0.8826	2.7693
H	0.5096	-0.8826	2.7693
H	1.0192	0.0000	-2.7693
H	-0.5096	-0.8826	-2.7693
H	-0.5096	0.8826	-2.7693
$end


$rem
method hf
basis aug-cc-pvdz
jobtype sp
unrestricted false
scf_guess read

cis_n_roots 15
max_cis_cycles 200
spin_flip_xcis true


gen_scfman true
scf_algorithm gdm
max_scf_cycles 500
scf_convergence 10
internal_stability_iter 15
internal_stability_davidson_iter 200

thresh 14
symmetry false
sym_ignore true
$end



@@@@@@

$comment
Excited state CIS calculations on CH3CH3
$end

$molecule
0 3
C	0.0000	0.0000	2.375
C	0.0000	0.0000	-2.375
H	-1.0192	0.0000	2.7643
H	0.5096	0.8826	2.7643
H	0.5096	-0.8826	2.7643
H	1.0192	0.0000	-2.7643
H	-0.5096	-0.8826	-2.7643
H	-0.5096	0.8826	-2.7643
$end


$rem
method hf
basis aug-cc-pvdz
jobtype sp
unrestricted false
scf_guess read

cis_n_roots 15
max_cis_cycles 200
spin_flip_xcis true


gen_scfman true
scf_algorithm gdm
max_scf_cycles 500
scf_convergence 10
internal_stability_iter 15
internal_stability_davidson_iter 200

thresh 14
symmetry false
sym_ignore true
$end



@@@@@@

$comment
Excited state CIS calculations on CH3CH3
$end

$molecule
0 3
C	0.0000	0.0000	2.37
C	0.0000	0.0000	-2.37
H	-1.0192	0.0000	2.7593
H	0.5096	0.8826	2.7593
H	0.5096	-0.8826	2.7593
H	1.0192	0.0000	-2.7593
H	-0.5096	-0.8826	-2.7593
H	-0.5096	0.8826	-2.7593
$end


$rem
method hf
basis aug-cc-pvdz
jobtype sp
unrestricted false
scf_guess read

cis_n_roots 15
max_cis_cycles 200
spin_flip_xcis true


gen_scfman true
scf_algorithm gdm
max_scf_cycles 500
scf_convergence 10
internal_stability_iter 15
internal_stability_davidson_iter 200

thresh 14
symmetry false
sym_ignore true
$end



@@@@@@

$comment
Excited state CIS calculations on CH3CH3
$end

$molecule
0 3
C	0.0000	0.0000	2.365
C	0.0000	0.0000	-2.365
H	-1.0192	0.0000	2.7543
H	0.5096	0.8826	2.7543
H	0.5096	-0.8826	2.7543
H	1.0192	0.0000	-2.7543
H	-0.5096	-0.8826	-2.7543
H	-0.5096	0.8826	-2.7543
$end


$rem
method hf
basis aug-cc-pvdz
jobtype sp
unrestricted false
scf_guess read

cis_n_roots 15
max_cis_cycles 200
spin_flip_xcis true


gen_scfman true
scf_algorithm gdm
max_scf_cycles 500
scf_convergence 10
internal_stability_iter 15
internal_stability_davidson_iter 200

thresh 14
symmetry false
sym_ignore true
$end



@@@@@@

$comment
Excited state CIS calculations on CH3CH3
$end

$molecule
0 3
C	0.0000	0.0000	2.36
C	0.0000	0.0000	-2.36
H	-1.0192	0.0000	2.7493
H	0.5096	0.8826	2.7493
H	0.5096	-0.8826	2.7493
H	1.0192	0.0000	-2.7493
H	-0.5096	-0.8826	-2.7493
H	-0.5096	0.8826	-2.7493
$end


$rem
method hf
basis aug-cc-pvdz
jobtype sp
unrestricted false
scf_guess read

cis_n_roots 15
max_cis_cycles 200
spin_flip_xcis true


gen_scfman true
scf_algorithm gdm
max_scf_cycles 500
scf_convergence 10
internal_stability_iter 15
internal_stability_davidson_iter 200

thresh 14
symmetry false
sym_ignore true
$end



@@@@@@

$comment
Excited state CIS calculations on CH3CH3
$end

$molecule
0 3
C	0.0000	0.0000	2.355
C	0.0000	0.0000	-2.355
H	-1.0192	0.0000	2.7443
H	0.5096	0.8826	2.7443
H	0.5096	-0.8826	2.7443
H	1.0192	0.0000	-2.7443
H	-0.5096	-0.8826	-2.7443
H	-0.5096	0.8826	-2.7443
$end


$rem
method hf
basis aug-cc-pvdz
jobtype sp
unrestricted false
scf_guess read

cis_n_roots 15
max_cis_cycles 200
spin_flip_xcis true


gen_scfman true
scf_algorithm gdm
max_scf_cycles 500
scf_convergence 10
internal_stability_iter 15
internal_stability_davidson_iter 200

thresh 14
symmetry false
sym_ignore true
$end



@@@@@@

$comment
Excited state CIS calculations on CH3CH3
$end

$molecule
0 3
C	0.0000	0.0000	2.35
C	0.0000	0.0000	-2.35
H	-1.0192	0.0000	2.7393
H	0.5096	0.8826	2.7393
H	0.5096	-0.8826	2.7393
H	1.0192	0.0000	-2.7393
H	-0.5096	-0.8826	-2.7393
H	-0.5096	0.8826	-2.7393
$end


$rem
method hf
basis aug-cc-pvdz
jobtype sp
unrestricted false
scf_guess read

cis_n_roots 15
max_cis_cycles 200
spin_flip_xcis true


gen_scfman true
scf_algorithm gdm
max_scf_cycles 500
scf_convergence 10
internal_stability_iter 15
internal_stability_davidson_iter 200

thresh 14
symmetry false
sym_ignore true
$end



@@@@@@

$comment
Excited state CIS calculations on CH3CH3
$end

$molecule
0 3
C	0.0000	0.0000	2.345
C	0.0000	0.0000	-2.345
H	-1.0192	0.0000	2.7343
H	0.5096	0.8826	2.7343
H	0.5096	-0.8826	2.7343
H	1.0192	0.0000	-2.7343
H	-0.5096	-0.8826	-2.7343
H	-0.5096	0.8826	-2.7343
$end


$rem
method hf
basis aug-cc-pvdz
jobtype sp
unrestricted false
scf_guess read

cis_n_roots 15
max_cis_cycles 200
spin_flip_xcis true


gen_scfman true
scf_algorithm gdm
max_scf_cycles 500
scf_convergence 10
internal_stability_iter 15
internal_stability_davidson_iter 200

thresh 14
symmetry false
sym_ignore true
$end



@@@@@@

$comment
Excited state CIS calculations on CH3CH3
$end

$molecule
0 3
C	0.0000	0.0000	2.34
C	0.0000	0.0000	-2.34
H	-1.0192	0.0000	2.7293
H	0.5096	0.8826	2.7293
H	0.5096	-0.8826	2.7293
H	1.0192	0.0000	-2.7293
H	-0.5096	-0.8826	-2.7293
H	-0.5096	0.8826	-2.7293
$end


$rem
method hf
basis aug-cc-pvdz
jobtype sp
unrestricted false
scf_guess read

cis_n_roots 15
max_cis_cycles 200
spin_flip_xcis true


gen_scfman true
scf_algorithm gdm
max_scf_cycles 500
scf_convergence 10
internal_stability_iter 15
internal_stability_davidson_iter 200

thresh 14
symmetry false
sym_ignore true
$end



@@@@@@

$comment
Excited state CIS calculations on CH3CH3
$end

$molecule
0 3
C	0.0000	0.0000	2.335
C	0.0000	0.0000	-2.335
H	-1.0192	0.0000	2.7243
H	0.5096	0.8826	2.7243
H	0.5096	-0.8826	2.7243
H	1.0192	0.0000	-2.7243
H	-0.5096	-0.8826	-2.7243
H	-0.5096	0.8826	-2.7243
$end


$rem
method hf
basis aug-cc-pvdz
jobtype sp
unrestricted false
scf_guess read

cis_n_roots 15
max_cis_cycles 200
spin_flip_xcis true


gen_scfman true
scf_algorithm gdm
max_scf_cycles 500
scf_convergence 10
internal_stability_iter 15
internal_stability_davidson_iter 200

thresh 14
symmetry false
sym_ignore true
$end



@@@@@@

$comment
Excited state CIS calculations on CH3CH3
$end

$molecule
0 3
C	0.0000	0.0000	2.33
C	0.0000	0.0000	-2.33
H	-1.0192	0.0000	2.7193
H	0.5096	0.8826	2.7193
H	0.5096	-0.8826	2.7193
H	1.0192	0.0000	-2.7193
H	-0.5096	-0.8826	-2.7193
H	-0.5096	0.8826	-2.7193
$end


$rem
method hf
basis aug-cc-pvdz
jobtype sp
unrestricted false
scf_guess read

cis_n_roots 15
max_cis_cycles 200
spin_flip_xcis true


gen_scfman true
scf_algorithm gdm
max_scf_cycles 500
scf_convergence 10
internal_stability_iter 15
internal_stability_davidson_iter 200

thresh 14
symmetry false
sym_ignore true
$end



@@@@@@

$comment
Excited state CIS calculations on CH3CH3
$end

$molecule
0 3
C	0.0000	0.0000	2.325
C	0.0000	0.0000	-2.325
H	-1.0192	0.0000	2.7143
H	0.5096	0.8826	2.7143
H	0.5096	-0.8826	2.7143
H	1.0192	0.0000	-2.7143
H	-0.5096	-0.8826	-2.7143
H	-0.5096	0.8826	-2.7143
$end


$rem
method hf
basis aug-cc-pvdz
jobtype sp
unrestricted false
scf_guess read

cis_n_roots 15
max_cis_cycles 200
spin_flip_xcis true


gen_scfman true
scf_algorithm gdm
max_scf_cycles 500
scf_convergence 10
internal_stability_iter 15
internal_stability_davidson_iter 200

thresh 14
symmetry false
sym_ignore true
$end



@@@@@@

$comment
Excited state CIS calculations on CH3CH3
$end

$molecule
0 3
C	0.0000	0.0000	2.32
C	0.0000	0.0000	-2.32
H	-1.0192	0.0000	2.7093
H	0.5096	0.8826	2.7093
H	0.5096	-0.8826	2.7093
H	1.0192	0.0000	-2.7093
H	-0.5096	-0.8826	-2.7093
H	-0.5096	0.8826	-2.7093
$end


$rem
method hf
basis aug-cc-pvdz
jobtype sp
unrestricted false
scf_guess read

cis_n_roots 15
max_cis_cycles 200
spin_flip_xcis true


gen_scfman true
scf_algorithm gdm
max_scf_cycles 500
scf_convergence 10
internal_stability_iter 15
internal_stability_davidson_iter 200

thresh 14
symmetry false
sym_ignore true
$end



@@@@@@

$comment
Excited state CIS calculations on CH3CH3
$end

$molecule
0 3
C	0.0000	0.0000	2.315
C	0.0000	0.0000	-2.315
H	-1.0192	0.0000	2.7043
H	0.5096	0.8826	2.7043
H	0.5096	-0.8826	2.7043
H	1.0192	0.0000	-2.7043
H	-0.5096	-0.8826	-2.7043
H	-0.5096	0.8826	-2.7043
$end


$rem
method hf
basis aug-cc-pvdz
jobtype sp
unrestricted false
scf_guess read

cis_n_roots 15
max_cis_cycles 200
spin_flip_xcis true


gen_scfman true
scf_algorithm gdm
max_scf_cycles 500
scf_convergence 10
internal_stability_iter 15
internal_stability_davidson_iter 200

thresh 14
symmetry false
sym_ignore true
$end



@@@@@@

$comment
Excited state CIS calculations on CH3CH3
$end

$molecule
0 3
C	0.0000	0.0000	2.31
C	0.0000	0.0000	-2.31
H	-1.0192	0.0000	2.6993
H	0.5096	0.8826	2.6993
H	0.5096	-0.8826	2.6993
H	1.0192	0.0000	-2.6993
H	-0.5096	-0.8826	-2.6993
H	-0.5096	0.8826	-2.6993
$end


$rem
method hf
basis aug-cc-pvdz
jobtype sp
unrestricted false
scf_guess read

cis_n_roots 15
max_cis_cycles 200
spin_flip_xcis true


gen_scfman true
scf_algorithm gdm
max_scf_cycles 500
scf_convergence 10
internal_stability_iter 15
internal_stability_davidson_iter 200

thresh 14
symmetry false
sym_ignore true
$end



@@@@@@

$comment
Excited state CIS calculations on CH3CH3
$end

$molecule
0 3
C	0.0000	0.0000	2.305
C	0.0000	0.0000	-2.305
H	-1.0192	0.0000	2.6943
H	0.5096	0.8826	2.6943
H	0.5096	-0.8826	2.6943
H	1.0192	0.0000	-2.6943
H	-0.5096	-0.8826	-2.6943
H	-0.5096	0.8826	-2.6943
$end


$rem
method hf
basis aug-cc-pvdz
jobtype sp
unrestricted false
scf_guess read

cis_n_roots 15
max_cis_cycles 200
spin_flip_xcis true


gen_scfman true
scf_algorithm gdm
max_scf_cycles 500
scf_convergence 10
internal_stability_iter 15
internal_stability_davidson_iter 200

thresh 14
symmetry false
sym_ignore true
$end



@@@@@@

$comment
Excited state CIS calculations on CH3CH3
$end

$molecule
0 3
C	0.0000	0.0000	2.3
C	0.0000	0.0000	-2.3
H	-1.0192	0.0000	2.6893
H	0.5096	0.8826	2.6893
H	0.5096	-0.8826	2.6893
H	1.0192	0.0000	-2.6893
H	-0.5096	-0.8826	-2.6893
H	-0.5096	0.8826	-2.6893
$end


$rem
method hf
basis aug-cc-pvdz
jobtype sp
unrestricted false
scf_guess read

cis_n_roots 15
max_cis_cycles 200
spin_flip_xcis true


gen_scfman true
scf_algorithm gdm
max_scf_cycles 500
scf_convergence 10
internal_stability_iter 15
internal_stability_davidson_iter 200

thresh 14
symmetry false
sym_ignore true
$end



@@@@@@

$comment
Excited state CIS calculations on CH3CH3
$end

$molecule
0 3
C	0.0000	0.0000	2.295
C	0.0000	0.0000	-2.295
H	-1.0192	0.0000	2.6843
H	0.5096	0.8826	2.6843
H	0.5096	-0.8826	2.6843
H	1.0192	0.0000	-2.6843
H	-0.5096	-0.8826	-2.6843
H	-0.5096	0.8826	-2.6843
$end


$rem
method hf
basis aug-cc-pvdz
jobtype sp
unrestricted false
scf_guess read

cis_n_roots 15
max_cis_cycles 200
spin_flip_xcis true


gen_scfman true
scf_algorithm gdm
max_scf_cycles 500
scf_convergence 10
internal_stability_iter 15
internal_stability_davidson_iter 200

thresh 14
symmetry false
sym_ignore true
$end



@@@@@@

$comment
Excited state CIS calculations on CH3CH3
$end

$molecule
0 3
C	0.0000	0.0000	2.29
C	0.0000	0.0000	-2.29
H	-1.0192	0.0000	2.6793
H	0.5096	0.8826	2.6793
H	0.5096	-0.8826	2.6793
H	1.0192	0.0000	-2.6793
H	-0.5096	-0.8826	-2.6793
H	-0.5096	0.8826	-2.6793
$end


$rem
method hf
basis aug-cc-pvdz
jobtype sp
unrestricted false
scf_guess read

cis_n_roots 15
max_cis_cycles 200
spin_flip_xcis true


gen_scfman true
scf_algorithm gdm
max_scf_cycles 500
scf_convergence 10
internal_stability_iter 15
internal_stability_davidson_iter 200

thresh 14
symmetry false
sym_ignore true
$end



@@@@@@

$comment
Excited state CIS calculations on CH3CH3
$end

$molecule
0 3
C	0.0000	0.0000	2.285
C	0.0000	0.0000	-2.285
H	-1.0192	0.0000	2.6743
H	0.5096	0.8826	2.6743
H	0.5096	-0.8826	2.6743
H	1.0192	0.0000	-2.6743
H	-0.5096	-0.8826	-2.6743
H	-0.5096	0.8826	-2.6743
$end


$rem
method hf
basis aug-cc-pvdz
jobtype sp
unrestricted false
scf_guess read

cis_n_roots 15
max_cis_cycles 200
spin_flip_xcis true


gen_scfman true
scf_algorithm gdm
max_scf_cycles 500
scf_convergence 10
internal_stability_iter 15
internal_stability_davidson_iter 200

thresh 14
symmetry false
sym_ignore true
$end



@@@@@@

$comment
Excited state CIS calculations on CH3CH3
$end

$molecule
0 3
C	0.0000	0.0000	2.28
C	0.0000	0.0000	-2.28
H	-1.0192	0.0000	2.6693
H	0.5096	0.8826	2.6693
H	0.5096	-0.8826	2.6693
H	1.0192	0.0000	-2.6693
H	-0.5096	-0.8826	-2.6693
H	-0.5096	0.8826	-2.6693
$end


$rem
method hf
basis aug-cc-pvdz
jobtype sp
unrestricted false
scf_guess read

cis_n_roots 15
max_cis_cycles 200
spin_flip_xcis true


gen_scfman true
scf_algorithm gdm
max_scf_cycles 500
scf_convergence 10
internal_stability_iter 15
internal_stability_davidson_iter 200

thresh 14
symmetry false
sym_ignore true
$end



@@@@@@

$comment
Excited state CIS calculations on CH3CH3
$end

$molecule
0 3
C	0.0000	0.0000	2.275
C	0.0000	0.0000	-2.275
H	-1.0192	0.0000	2.6643
H	0.5096	0.8826	2.6643
H	0.5096	-0.8826	2.6643
H	1.0192	0.0000	-2.6643
H	-0.5096	-0.8826	-2.6643
H	-0.5096	0.8826	-2.6643
$end


$rem
method hf
basis aug-cc-pvdz
jobtype sp
unrestricted false
scf_guess read

cis_n_roots 15
max_cis_cycles 200
spin_flip_xcis true


gen_scfman true
scf_algorithm gdm
max_scf_cycles 500
scf_convergence 10
internal_stability_iter 15
internal_stability_davidson_iter 200

thresh 14
symmetry false
sym_ignore true
$end



@@@@@@

$comment
Excited state CIS calculations on CH3CH3
$end

$molecule
0 3
C	0.0000	0.0000	2.27
C	0.0000	0.0000	-2.27
H	-1.0192	0.0000	2.6593
H	0.5096	0.8826	2.6593
H	0.5096	-0.8826	2.6593
H	1.0192	0.0000	-2.6593
H	-0.5096	-0.8826	-2.6593
H	-0.5096	0.8826	-2.6593
$end


$rem
method hf
basis aug-cc-pvdz
jobtype sp
unrestricted false
scf_guess read

cis_n_roots 15
max_cis_cycles 200
spin_flip_xcis true


gen_scfman true
scf_algorithm gdm
max_scf_cycles 500
scf_convergence 10
internal_stability_iter 15
internal_stability_davidson_iter 200

thresh 14
symmetry false
sym_ignore true
$end



@@@@@@

$comment
Excited state CIS calculations on CH3CH3
$end

$molecule
0 3
C	0.0000	0.0000	2.265
C	0.0000	0.0000	-2.265
H	-1.0192	0.0000	2.6543
H	0.5096	0.8826	2.6543
H	0.5096	-0.8826	2.6543
H	1.0192	0.0000	-2.6543
H	-0.5096	-0.8826	-2.6543
H	-0.5096	0.8826	-2.6543
$end


$rem
method hf
basis aug-cc-pvdz
jobtype sp
unrestricted false
scf_guess read

cis_n_roots 15
max_cis_cycles 200
spin_flip_xcis true


gen_scfman true
scf_algorithm gdm
max_scf_cycles 500
scf_convergence 10
internal_stability_iter 15
internal_stability_davidson_iter 200

thresh 14
symmetry false
sym_ignore true
$end



@@@@@@

$comment
Excited state CIS calculations on CH3CH3
$end

$molecule
0 3
C	0.0000	0.0000	2.26
C	0.0000	0.0000	-2.26
H	-1.0192	0.0000	2.6493
H	0.5096	0.8826	2.6493
H	0.5096	-0.8826	2.6493
H	1.0192	0.0000	-2.6493
H	-0.5096	-0.8826	-2.6493
H	-0.5096	0.8826	-2.6493
$end


$rem
method hf
basis aug-cc-pvdz
jobtype sp
unrestricted false
scf_guess read

cis_n_roots 15
max_cis_cycles 200
spin_flip_xcis true


gen_scfman true
scf_algorithm gdm
max_scf_cycles 500
scf_convergence 10
internal_stability_iter 15
internal_stability_davidson_iter 200

thresh 14
symmetry false
sym_ignore true
$end



@@@@@@

$comment
Excited state CIS calculations on CH3CH3
$end

$molecule
0 3
C	0.0000	0.0000	2.255
C	0.0000	0.0000	-2.255
H	-1.0192	0.0000	2.6443
H	0.5096	0.8826	2.6443
H	0.5096	-0.8826	2.6443
H	1.0192	0.0000	-2.6443
H	-0.5096	-0.8826	-2.6443
H	-0.5096	0.8826	-2.6443
$end


$rem
method hf
basis aug-cc-pvdz
jobtype sp
unrestricted false
scf_guess read

cis_n_roots 15
max_cis_cycles 200
spin_flip_xcis true


gen_scfman true
scf_algorithm gdm
max_scf_cycles 500
scf_convergence 10
internal_stability_iter 15
internal_stability_davidson_iter 200

thresh 14
symmetry false
sym_ignore true
$end



@@@@@@

$comment
Excited state CIS calculations on CH3CH3
$end

$molecule
0 3
C	0.0000	0.0000	2.25
C	0.0000	0.0000	-2.25
H	-1.0192	0.0000	2.6393
H	0.5096	0.8826	2.6393
H	0.5096	-0.8826	2.6393
H	1.0192	0.0000	-2.6393